5464198
1,74,75,76,77,78,79,80,82,81,91,90,89,86,83,84,67,68,64,73,72,71,70,69,30,51,52,55,54,57,60,59,58,61,62,63,65,66,85,87,88,94,92,93,97,98,96,101,114,102,156,159,158,157,162,166,161,160,163,169,164,165,172,174,178,179,181,180,177,176,189,193,194,182,183,195,196,202,201,200,199,197,198,191,192,188,187,190,151,150,149,148,152,153,155,154,146,23,24,142,25,147,145,144,143,139,132,140,141,185,184,186,136,175,173,171,135,170,134,133,126,125,167,168,117,116,115,113,122,121,119,104,105,103,41,46,106,108,107,109,110,111,99,112,100,95,50,48,49,47,45,42,44,43,56,53,34,35,33,31,32,20,26,27,28,37,36,40,118,38,39,123,120,124,131,130,129,128,127,138,137,29,22,21,19,11,18,17,10,9,7,6,5,4,8,13,12,15,14,16,3,2,1
